objective value:                                  522
sq1_0_0_11                                          1 	(obj:11)
sq1_0_1_39                                          1 	(obj:39)
sq1_0_2_27                                          1 	(obj:27)
sq1_1_0_41                                          1 	(obj:41)
sq1_1_1_26                                          1 	(obj:26)
sq1_1_2_10                                          1 	(obj:10)
sq1_2_0_25                                          1 	(obj:25)
sq1_2_1_13                                          1 	(obj:13)
sq1_2_2_40                                          1 	(obj:40)

sq2_0_0_7                                           1 	(obj:7)
sq2_0_1_25                                          1 	(obj:25)
sq2_0_2_13                                          1 	(obj:13)
sq2_1_0_21                                          1 	(obj:21)
sq2_1_1_16                                          1 	(obj:16)
sq2_1_2_9                                           1 	(obj:9)
sq2_2_0_17                                          1 	(obj:17)
sq2_2_1_5                                           1 	(obj:5)
sq2_2_2_23                                          1 	(obj:23)

sq3_0_0_10                                          1 	(obj:10)
sq3_0_1_22                                          1 	(obj:22)
sq3_0_2_29                                          1 	(obj:29)
sq3_1_0_40                                          1 	(obj:40)
sq3_1_1_20                                          1 	(obj:20)
sq3_1_2_1                                           1 	(obj:1)
sq3_2_0_12                                          1 	(obj:12)
sq3_2_1_19                                          1 	(obj:19)
sq3_2_2_31                                          1 	(obj:31)

sq4_0_0_9                                           1 	(obj:9)
sq4_0_1_12                                          1 	(obj:12)
sq4_0_2_19                                          1 	(obj:19)
sq4_1_0_23                                          1 	(obj:23)
sq4_1_1_14                                          1 	(obj:14)
sq4_1_2_3                                           1 	(obj:3)
sq4_2_0_8                                           1 	(obj:8)
sq4_2_1_15                                          1 	(obj:15)
sq4_2_2_18                                          1 	(obj:18)

magic1                                             78 	(obj:0)
magic2                                             46 	(obj:0)
magic3                                             62 	(obj:0)
magic4                                             41 	(obj:0)
